benchmarks_vrp/CMT3/fixed_c_size/CMT3_1.vrp
NAME: CMT3_1
TYPE: CVRP
COMMENT: 826.14 - Cluster Nr.1
DIMENSION: 15
CAPACITY: 200
EDGE_WEIGHT_TYPE: EUC_2D
NODE_COORD_TYPE: TWOD_COORDS
NODE_COORD_SECTION: 
3 45 30
8 45 10
15 40 25
12 36 26
11 47 16
7 35 17
5 45 20
14 46 13
4 42 7
9 44 17
2 30 5
10 49 11
13 37 31
1 32 12
6 35 35
DEPOT_SECTION: 
6
-1
DEMAND_SECTION: 
15 9
1 7
11 25
6 0
10 18
13 14
14 8
7 7
5 11
8 18
4 5
3 17
12 18
2 8
9 9
EOF
