benchmarks_vrp/CMT3/fixed_c_size/CMT3_1.tour
NAME: CMT3_1 solution
TYPE: TOUR
TOUR_SECTION:
6 3 15 5 9 11 14 10 8 4 2 1 7 12 13 -1
-1
EOF